# 37523
param n := 30;
param s := 1;
set E :=  (0,8) (0,9) (0,17) (1,9) (1,19) (1,26) (2,3) (2,13) (2,17) (3,21) (3,25) (4,11) (4,12) (5,17) (5,23) (6,27) (7,13) (8,24) (9,11) (10,16) (11,24) (11,28) (13,18) (14,17) (15,22) (16,24) (20,29) (21,22) (22,27) (28,29);
